         131
      0.7668543600000000      -0.6418223900000000                0
      0.7664597100000000      -0.6413843300000001                0
      0.7652764500000001      -0.6400714999999999                0
      0.7633067500000000      -0.6378876900000000                0
      0.7605539500000000      -0.6348393500000000                0
      0.7570231100000000      -0.6309355500000000                0
      0.7527204500000001      -0.6261875299999999                0
      0.7476538500000000      -0.6206090700000000                0
      0.7418325299999999      -0.6142162700000000                0
      0.7352674000000000      -0.6070274100000000                0
      0.7279705800000000      -0.5990628499999999                0
      0.7199562500000001      -0.5903449400000000                0
      0.7112395300000000      -0.5808979600000000                0
      0.7018376500000000      -0.5707478800000000                0
      0.6917691700000000      -0.5599225400000001                0
      0.6810542400000000      -0.5484511200000000                0
      0.6697144600000000      -0.5363645100000000                0
      0.6577729200000000      -0.5236949200000001                0
      0.6452543100000000      -0.5104759600000000                0
      0.6321845700000001      -0.4967423400000000                0
      0.6185906600000000      -0.4825302400000001                0
      0.6045012300000000      -0.4678767700000000                0
      0.5899456000000000      -0.4528201000000000                0
      0.5749543500000001      -0.4373998600000000                0
      0.5595587600000000      -0.4216562600000000                0
      0.5437909800000000      -0.4056307800000000                0
      0.5276838000000000      -0.3893654100000000                0
      0.5112705900000001      -0.3729034300000000                0
      0.4945850800000000      -0.3562886800000000                0
      0.4776614800000000      -0.3395657800000000                0
      0.4605339600000000      -0.3227797400000000                0
      0.4432374800000000      -0.3059763200000000                0
      0.4258065800000000      -0.2892014900000000                0
      0.4082760300000000      -0.2725013900000000                0
      0.3906808300000000      -0.2559223600000000                0
      0.3730558200000000      -0.2395104700000000                0
      0.3554358800000000      -0.2233114300000000                0
      0.3378559200000000      -0.2073706000000000                0
      0.3203508500000000      -0.1917325500000000                0
      0.3029557200000000      -0.1764407900000000                0
      0.2857054800000000      -0.1615378100000000                0
      0.2686350200000000      -0.1470646500000000                0
      0.2517795200000000      -0.1330608900000000                0
      0.2351741700000000      -0.1195642700000000                0
      0.2188539800000000      -0.1066106900000000                0
      0.2028541000000000      -0.0942338300000000                0
      0.1872097600000000      -0.0824653400000000                0
      0.1719559000000000      -0.0713346600000000                0
      0.1571273600000000      -0.0608685600000000                0
      0.1427586700000000      -0.0510915500000000                0
      0.1288839800000000      -0.0420259200000000                0
      0.1155369700000000      -0.0336913000000000                0
      0.1027504000000000      -0.0261052500000000                0
      0.0905563800000000      -0.0192827200000000                0
      0.0789858100000000      -0.0132369600000000                0
      0.0680683200000000      -0.0079787500000000                0
      0.0578319800000000      -0.0035173900000000                0
      0.0483034000000000       0.0001397800000000                0
      0.0395069400000000       0.0029869400000000                0
      0.0314650700000000       0.0050196100000000                0
      0.0241978100000000       0.0062345600000000                0
      0.0177227200000000       0.0066297100000000                0
      0.0120548300000000       0.0062038200000000                0
      0.0072060900000000       0.0049565200000000                0
      0.0031857600000000       0.0028882600000000                0
      0.0000000000000000       0.0000000000000000                0
     -0.0022911700000000      -0.0036389000000000                0
     -0.0036298900000000      -0.0079573100000000                0
     -0.0040162700000000      -0.0129489800000000                0
     -0.0034514700000000      -0.0186047100000000                0
     -0.0019379400000000      -0.0249128100000000                0
      0.0005205000000000      -0.0318586900000000                0
      0.0039187400000000      -0.0394254100000000                0
      0.0082501400000000      -0.0475938300000000                0
      0.0135063700000000      -0.0563425900000000                0
      0.0196774700000000      -0.0656487200000000                0
      0.0267516100000000      -0.0754872700000000                0
      0.0347147200000000      -0.0858322100000000                0
      0.0435510700000000      -0.0966562600000000                0
      0.0532422300000000      -0.1079312700000000                0
      0.0637679200000000      -0.1196282200000000                0
      0.0751051400000000      -0.1317178800000000                0
      0.0872287100000000      -0.1441705300000000                0
      0.1001107600000000      -0.1569563700000000                0
      0.1137211400000000      -0.1700456700000000                0
      0.1280274600000000      -0.1834087600000000                0
      0.1429946200000000      -0.1970163400000000                0
      0.1585853900000000      -0.2108392300000000                0
      0.1747604600000000      -0.2248486500000000                0
      0.1914783900000000      -0.2390163400000000                0
      0.2086959300000000      -0.2533142300000000                0
      0.2263679600000000      -0.2677145200000000                0
      0.2444480500000000      -0.2821899900000000                0
      0.2628882400000000      -0.2967136000000000                0
      0.2816396200000000      -0.3112583900000000                0
      0.3006522300000000      -0.3257977100000000                0
      0.3198753300000000      -0.3403050600000000                0
      0.3392578700000000      -0.3547540300000000                0
      0.3587484100000000      -0.3691183100000000                0
      0.3782952400000000      -0.3833714800000000                0
      0.3978468700000000      -0.3974873000000000                0
      0.4173520600000000      -0.4114397500000000                0
      0.4367596500000000      -0.4252023400000000                0
      0.4560194000000000      -0.4387492400000000                0
      0.4750814000000000      -0.4520545000000000                0
      0.4938966500000000      -0.4650925300000000                0
      0.5124167200000000      -0.4778379600000000                0
      0.5305945500000000      -0.4902658200000000                0
      0.5483837300000000      -0.5023516200000000                0
      0.5657392099999999      -0.5140715500000000                0
      0.5826166700000001      -0.5254023800000001                0
      0.5989734099999999      -0.5363218700000000                0
      0.6147679200000000      -0.5468082200000000                0
      0.6299598900000000      -0.5568412100000000                0
      0.6445106199999999      -0.5664012700000000                0
      0.6583827400000000      -0.5754699599999999                0
      0.6715405200000000      -0.5840301100000000                0
      0.6839497700000000      -0.5920658300000000                0
      0.6955782600000000      -0.5995623299999999                0
      0.7063953600000000      -0.6065061800000000                0
      0.7163725100000000      -0.6128849000000001                0
      0.7254831400000000      -0.6186878300000000                0
      0.7337028100000000      -0.6239049000000000                0
      0.7410093600000001      -0.6285276700000000                0
      0.7473828700000000      -0.6325486100000000                0
      0.7528059100000000      -0.6359614200000000                0
      0.7572635200000001      -0.6387607300000000                0
      0.7607435700000000      -0.6409423700000001                0
      0.7632362399999999      -0.6425029300000000                0
      0.7647345900000001      -0.6434402400000000                0
      0.7652345300000001      -0.6437528299999999                0
