         146
   2.8084888892202553       0.16069690242163481                0
   2.8211753664163961       0.16699443956295326                0
   2.8353325350127698       0.16656987504681850                0
   2.8491254956375967       0.16335119287914532                0
   2.8625059546526170       0.15870694975008104                0
   2.8755466569302581       0.15318012771563677                0
   2.8883096055542876       0.14703905125341293                0
   2.9008404078878227       0.14043718253521026                0
   2.9131726719483182       0.13347148509441423                0
   2.9253317937985912       0.12620777849759129                0
   2.9373375041161278       0.11869321946422662                0
   2.9492055319734645       0.11096304530887896                0
   2.9609487060057624       0.10304448853749235                0
   2.9725777001476104        9.4959182548019425E-002           0
   2.9841015511545677        8.6724710150592743E-002           0
   2.9955280261977726        7.8355639366955054E-002           0
   3.0068638895882382        6.9864239076825776E-002           0
   3.0181151000724356        6.1260987346532694E-002           0
   3.0292869593221363        5.2554941252043560E-002           0
   3.0403842254486180        4.3754011629977323E-002           0
   3.0514112010097461        3.4865171004292615E-002           0
   3.0623718021171924        2.5894613549042232E-002           0
   3.0732696133357793        1.6847879976169981E-002           0
   3.0841079317606206        7.7299563410293468E-003           0
   3.0948898027512604       -1.4546468423273437E-003           0
   3.1056180491627847       -1.0701830555660000E-002           0
   3.1162952954564695       -2.0007854909727125E-002           0
   3.1269239877407040       -2.9369295932431261E-002           0
   3.1375064105491788       -3.8783009609678482E-002           0
   3.1480447009821781       -4.8246101728234535E-002           0
   3.1585408607007013       -5.7755902402158117E-002           0
   3.1689967661598644       -6.7309944411881470E-002           0
   3.1794141773889120       -7.6905944671334520E-002           0
   3.1897947455640474       -8.6541788280269927E-002           0
   3.2001400195726601       -9.6215514727778784E-002           0
   3.2104514517301395      -0.10592530589732529                0
   3.2207304027809207      -0.11566947558951439                0
   3.2309781462918590      -0.12544646033065587                0
   3.2411958725272139      -0.13525481127634770                0
   3.2513846918792901      -0.14509318705211804                0
   3.2615456379165213      -0.15496034739960404                0
   3.2716796701007151      -0.16485514751806232                0
   3.2817876762169886      -0.17477653300839965                0
   3.2918704745531482      -0.18472353534110539                0
   3.3019288158596858      -0.19469526778114346                0
   3.3119633851169308      -0.20469092171252981                0
   3.3219748031320209      -0.21470976331331626                0
   3.3319636279851141      -0.22475113053838641                0
   3.3419303563415719      -0.23481443037308794                0
   3.3518754246445130      -0.24489913632538626                0
   3.3617992102002501      -0.25500478612825667                0
   3.3717020321674309      -0.26513097962733706                0
   3.3815841524593631      -0.27527737683177822                0
   3.3914457765677763      -0.28544369610863041                0
   3.4012870543152913      -0.29562971250321557                0
   3.4111080805430074      -0.30583525616972562                0
   3.4209088957388576      -0.31606021089780645                0
   3.4306894866118154      -0.32630451272225103                0
   3.4404497866164454      -0.33656814860404988                0
   3.4501896764318962      -0.34685115517204174                0
   3.4599089843990458      -0.35715361751529706                0
   3.4696074869191849      -0.36747566801708037                0
   3.4792849088174012      -0.37781748522192449                0
   3.4889409236736184      -0.38817929272790624                0
   3.4985751541240711      -0.39856135809670973                0
   3.5081871721359206      -0.40896399177450576                0
   3.5177764992576193      -0.41938754601706363                0
   3.5273426068476068      -0.42983241381284176                0
   3.5368849162839058      -0.44029902779810109                0
   3.5464027991572440      -0.45078785915836000                0
   3.5558955774503493      -0.46129941651074452                0
   3.5653625237061952      -0.47183424476199837                0
   3.5748028611880516      -0.48239292393712169                0
   3.5628264783746144      -0.47483171157397952                0
   3.5508078011326192      -0.46733790913147838                0
   3.5388075550831291      -0.45981462710524751                0
   3.5268253299496726      -0.45226267646016932                0
   3.5148607426102196      -0.44468281317043173                0
   3.5029134381925706      -0.43707573785553450                0
   3.4909830911438684      -0.42944209540962297                0
   3.4790694062788967      -0.42178247462053442                0
   3.4671721198120693      -0.41409740777497256                0
   3.4552910003782613      -0.40638737024626470                0
   3.4434258500478871      -0.39865278006112037                0
   3.4315765053419454      -0.39089399744177522                0
   3.4197428382530508      -0.38311132431978751                0
   3.4079247572788689      -0.37530500381764220                0
   3.3961222084747571      -0.36747521969411190                0
   3.3843351765328840      -0.35962209574909765                0
   3.3725636858956376      -0.35174569518337262                0
   3.3608078019117373      -0.34384601990829938                0
   3.3490676320441186      -0.33592300980014145                0
   3.3373433271394886      -0.32797654189308978                0
   3.3256350827703307      -0.32000642950451152                0
   3.3139431406611672      -0.31201242128519580                0
   3.3022677902121309      -0.30399420018655515                0
   3.2906093701342298      -0.29595138233572121                0
   3.2789682702123595      -0.28788351580834454                0
   3.2673449332139710      -0.27979007928753430                0
   3.2557398569634914      -0.27167048059578558                0
   3.2441535966052100      -0.26352405508488597                0
   3.2325867670803334      -0.25535006386657960                0
   3.2210400458475066      -0.24714769186416960                0
   3.2095141758803463      -0.23891604566218816                0
   3.1980099689805419      -0.23065415112757942                0
   3.1865283094511461      -0.22236095077153198                0
   3.1750701581818448      -0.21403530081586261                0
   3.1636365572067433      -0.20567596792162687                0
   3.1522286348057005      -0.19728162553009165                0
   3.1408476112331103      -0.18885084975708749                0
   3.1294948051736471      -0.18038211477063720                0
   3.1181716410438449      -0.17187378756817923                0
   3.1068796572822097      -0.16332412205299793                0
   3.0956205158002925      -0.15473125228878690                0
   3.0843960128044094      -0.14609318478558181                0
   3.0732080912446817      -0.13740778963810127                0
   3.0620588552078472      -0.12867279029697612                0
   3.0509505866468700      -0.11988575170188071                0
   3.0398857649393216      -0.11104406643974513                0
   3.0288670898955372      -0.10214493850640285                0
   3.0178975090073612       -9.3185364139710375E-002           0
   3.0069802499541662       -8.4162109047453512E-002           0
   2.9961188596865465       -7.5071681161542170E-002           0
   2.9853172518214586       -6.5910297793111056E-002           0
   2.9745797646524768       -5.6673845715041554E-002           0
   2.9639112328757733       -4.7357832220849626E-002           0
   2.9533170772640758       -3.7957324544684458E-002           0
   2.9428034181552865       -2.8466874089691035E-002           0
   2.9323772210272248       -1.8880420567073841E-002           0
   2.9220464860419382       -9.1911691843153398E-003           0
   2.9118204989939631        6.0856890346893538E-004           0
   2.9017101698494052        1.0527587115127850E-002           0
   2.8917284992686212        2.0576066110040897E-002           0
   2.8818912373332441        3.0765960874428545E-002           0
   2.8722178402012783        4.1111542811748746E-002           0
   2.8627329059298003        5.1630178633958086E-002           0
   2.8534684153250658        6.2343483050865317E-002           0
   2.8444673980212563        7.3279083866139169E-002           0
   2.8357902887931856        8.4473433027150352E-002           0
   2.8275267858651549        9.5976484668038209E-002           0
   2.8198201842424617       0.10785983306500047                0
   2.8129241492336958       0.12023118621865375                0
   2.8073612718056018       0.13325654887827032                0
   2.8044894036283794       0.14712586936873395                0
   5.0000000000000000        4.9999950000000002               -1
   5.0000000000000000        5.0000049999999998               -1
